clingo version 5.4.0
Reading from merger/Marcus/merge.lp ...
Solving...
UNSATISFIABLE

Models       : 0
Calls        : 1
Time         : 19.092s (Solving: 2.12s 1st Model: 0.00s Unsat: 2.12s)
CPU Time     : 19.012s
